p cnf 54 175
a 27 0
e 1 2 3 4 5 6 7 8 9 10 11 12 13 14 15 16 17 18 19 20 21 22 23 24 25 26 28 29 30 31 32 33 34 35 36 37 38 39 40 41 42 43 44 45 46 47 48 49 50 51 52 53 54 0
-1 2 -3 0
1 -2 -3 0
-1 -2 3 0
1 2 3 0
3 4 -5 0
-3 -4 -5 0
3 -4 5 0
-3 4 5 0
-6 5 0
-6 -1 0
-5 1 6 0
-7 8 -9 0
7 -8 -9 0
-7 -8 9 0
7 8 9 0
-9 3 -10 0
9 -3 -10 0
-9 -3 10 0
9 3 10 0
12 11 0
12 -8 0
-11 8 -12 0
-13 -12 0
-13 3 0
12 -3 13 0
-15 -3 0
-15 14 0
3 -14 15 0
13 15 -16 0
-13 -15 -16 0
13 -15 16 0
-13 15 16 0
-10 -16 -17 0
10 16 -17 0
-10 16 17 0
10 -16 17 0
-11 18 -19 0
11 -18 -19 0
-11 -18 19 0
11 18 19 0
-20 -19 0
-20 12 0
19 -12 20 0
21 -4 0
21 18 0
4 -18 -21 0
22 -20 0
22 21 0
20 -21 -22 0
-17 22 -23 0
17 -22 -23 0
-17 -22 23 0
17 22 23 0
24 -15 0
24 18 0
15 -18 -24 0
-4 18 -25 0
4 -18 -25 0
-4 -18 25 0
4 18 25 0
-27 -7 0
-27 4 0
7 -4 27 0
-26 -27 -28 0
26 27 -28 0
-26 27 28 0
26 -27 28 0
-25 -28 -29 0
25 28 -29 0
-25 28 29 0
25 -28 29 0
-19 -21 -30 0
19 21 -30 0
-19 21 30 0
19 -21 30 0
-29 30 -31 0
29 -30 -31 0
-29 -30 31 0
29 30 31 0
-24 31 -32 0
24 -31 -32 0
-24 -31 32 0
24 31 32 0
-23 32 -33 0
23 -32 -33 0
-23 -32 33 0
23 32 33 0
19 13 -34 0
-19 -13 -34 0
19 -13 34 0
-19 13 34 0
-35 -14 0
-35 -1 0
14 1 35 0
36 -35 0
36 -20 0
35 20 -36 0
-34 36 -37 0
34 -36 -37 0
-34 -36 37 0
34 36 37 0
38 -33 0
38 37 0
33 -37 -38 0
-6 38 -39 0
6 -38 -39 0
-6 -38 39 0
6 38 39 0
7 -14 -40 0
-7 14 -40 0
7 14 40 0
-7 -14 40 0
-42 -41 0
-42 -1 0
41 1 42 0
-43 -42 0
-43 19 0
42 -19 43 0
-41 27 -44 0
41 -27 -44 0
-41 -27 44 0
41 27 44 0
-45 44 0
-45 -13 0
-44 13 45 0
-43 -45 -46 0
43 45 -46 0
-43 45 46 0
43 -45 46 0
16 42 -47 0
-16 -42 -47 0
16 -42 47 0
-16 42 47 0
2 -21 -48 0
-2 21 -48 0
2 21 48 0
-2 -21 48 0
49 -47 0
49 48 0
47 -48 -49 0
50 46 0
50 -49 0
-46 49 -50 0
40 50 -51 0
-40 -50 -51 0
40 -50 51 0
-40 50 51 0
52 14 0
52 -18 0
-14 18 -52 0
51 -52 -53 0
-51 52 -53 0
51 52 53 0
-51 -52 53 0
-39 53 -54 0
39 -53 -54 0
-39 -53 54 0
39 53 54 0
-49 3 40 -44 -45 2 4 -23 0
15 -42 -8 40 38 51 -35 0
52 50 16 30 0
7 -13 -11 17 0
11 35 -46 -5 0
-30 -7 9 -42 0
1 16 36 10 -34 -51 0
-9 35 8 -53 -22 0
-39 -24 29 -47 20 0
33 9 -40 0
-18 30 -37 -2 49 0
-40 -30 27 7 34 17 -13 0
51 -44 -53 29 -11 0
-53 27 15 -18 -35 0
-4 -24 -19 0
5 -9 7 -29 -53 12 -49 -16 0
54 0
